row=8;
column=8;
Board=[|0,0,0,0,6,6,5,0|0,0,0,0,0,0,0,0|1,0,0,0,0,0,4,5|0,0,0,0,0,0,0,0|0,0,0,0,0,0,0,0|0,0,0,0,0,0,0,5|2,0,0,0,0,0,0,0|3,0,1,0,0,4,6,0|];
right = [5,0,6,0,1,2,1,5];
bottom = [3,2,2,2,2,2,4,3];
